1180903
7,84,88,52,90,43,54,71,69,36,47,0,73,31,12,98,67,35,37,49,87,75,44,13,6,65,3,38,21,83,91,85,80,64,23,18,58,89,53,97,10,27,45,22,33,70,42,51,16,93,39,78,50,11,77,24,25,28,72,94,46,56,8,32,19,95,20,30,59,9,68,74,40,5,55,17,76,29,48,61,92,62,79,86,60,14,82,15,57,81,66,34,63,26,1,4,2,41,96